c Random 9-CNF over 20 variables and 40 clauses
c Generated with `cnfgen`
c (C) 2012-2016 Massimo Lauria <lauria.massimo@gmail.com>
c https://massimolauria.github.io/cnfgen
c
c COMMAND LINE: cnfgen --output tmp-9-20-40.dimacs --output-format dimacs randkcnf 9 20 40
c
c sdimacs generated by gen-sdimacs
c
p cnf 20 40
r 0.5 1 2 3 4 5 6 7 8 9 10 0
e  11 12 13 14 15 16 17 18 19 20 0
4 5 6 -8 11 -13 -14 19 -20 0
-2 -4 7 11 -12 13 -14 19 20 0
-1 9 10 14 15 -16 17 -18 20 0
-2 -4 8 11 12 13 16 -17 18 0
-3 -5 -7 -8 -10 -14 18 19 20 0
-1 3 4 -7 10 15 -17 18 19 0
2 -3 5 6 8 -9 -10 -12 -15 0
1 -4 -5 8 -9 10 12 14 -15 0
1 -5 6 -7 8 -14 -15 18 20 0
2 -3 -4 7 -10 -12 13 14 -20 0
-3 -4 5 6 7 -10 11 -13 -20 0
4 8 9 -12 -13 14 15 -17 19 0
-1 -2 -9 10 -13 14 15 -18 -20 0
-1 4 6 7 -9 -12 14 -15 -20 0
-1 3 6 8 -10 12 -16 18 19 0
-1 -3 4 -5 7 -10 11 12 18 0
-3 7 -9 -11 14 15 -17 18 -20 0
1 3 5 9 11 -12 -13 14 -18 0
1 2 -6 -10 12 15 -16 -18 -20 0
-1 3 -5 7 13 -15 17 19 20 0
1 2 6 -8 -9 16 18 19 20 0
6 7 -8 10 13 16 17 18 20 0
-1 2 4 -6 -8 9 10 -11 15 0
2 -6 7 -9 -10 11 15 -16 -20 0
2 -5 -7 -10 -12 13 -14 16 -20 0
-3 6 9 -11 -12 13 14 -16 -20 0
-5 7 8 10 -12 -14 -16 17 18 0
-1 -3 9 11 -13 -14 -15 -16 18 0
1 -5 8 10 -11 -13 -14 -16 19 0
-2 3 -4 -5 -6 -7 -9 -17 19 0
6 7 8 -10 16 -17 -18 -19 -20 0
3 6 7 9 -13 14 -18 -19 -20 0
1 -2 -7 9 -10 14 15 16 20 0
3 -4 6 -7 8 -10 -15 -16 -17 0
-1 5 8 9 11 -13 14 16 20 0
-1 -2 -6 7 8 10 -12 16 -19 0
1 -4 7 -8 -9 10 -11 -13 -17 0
1 3 5 8 14 -15 -18 -19 20 0
1 3 -5 -7 -8 -9 -15 -18 -20 0
2 -3 6 -8 9 11 12 17 -18 0
